NAME: test1716
TYPE: TSP
DIMENSION: 11
EDGE_WEIGHT_TYPE: EUC_2D
NODE_COORD_SECTION
1 88.36777519332169 37.43041930750671
2 8.839412783397993 63.847020812939945
3 65.74607315539237 66.59974418334794
4 32.81712464607909 25.297574868383677
5 19.213587625055638 25.59538234025649
6 46.47075230223362 60.23170205927112
7 27.048427744525185 3.9279917752872318
8 83.34498080259957 77.46186982508357
9 23.66430464090635 47.873790184532524
10 11.578173195039277 8.484565283119094
11 3.7005408195722844 12.819035557487247
EOF
